Route #1: 1 14 43 37 54 71 67 68 56 16 55 34 1
Route #2: 1 61 40 42 47 26 21 76 79 28 32 1
Route #3: 1 41 22 2 8 11 72 15 1
Route #4: 1 50 74 52 78 4 75 30 6 45 1
Route #5: 1 63 24 13 3 38 9 44 1
Route #6: 1 39 59 77 73 51 33 46 5 65 1
Route #7: 1 64 12 35 25 7 31 60 1
Route #8: 1 10 70 57 48 27 36 66 20 58 17 69 1
Route #9: 1 19 49 80 29 53 1
Route #10: 1 23 62 18 1
cost 2227.1459996549206